language ESSENCE' 1.0
$ Generated from file ../../j30/j3021_1.mm
letting jobs = 32
letting horizon = 65
letting resourcesRenew = 2
letting resourcesNonrenew = 2
letting successors = [[2, 3, 4], [5, 7, 27], [5, 12, 15], [6, 9, 28], [28], [13, 29], [8, 10, 22], [14, 20], [26], [11, 16, 20], [12, 26], [13, 18, 19], [21], [17, 24, 25], [17, 20, 27], [17, 24, 25], [18, 30], [29], [23], [21, 28], [23], [23], [24], [31], [26, 29, 30], [31], [30], [31], [32], [32], [32], []]
letting durations = [[0], [3, 7, 9], [1, 6, 7], [1, 1, 2], [1, 2, 5], [3, 4, 6], [5, 8, 8], [3, 3, 8], [1, 2, 2], [1, 7, 9], [3, 7, 9], [3, 4, 5], [1, 5, 6], [5, 7, 8], [2, 2, 4], [3, 7, 10], [2, 9, 10], [6, 8, 10], [3, 3, 10], [4, 9, 10], [3, 8, 10], [6, 8, 10], [2, 7, 10], [2, 9, 9], [1, 4, 5], [1, 8, 9], [2, 2, 3], [5, 5, 7], [1, 1, 2], [1, 9, 9], [2, 5, 10], [0]]
letting resourceUsage = [[[0, 0, 0, 0]], [[4, 4, 0, 10], [4, 2, 6, 0], [4, 1, 4, 0]], [[9, 4, 5, 0], [5, 3, 4, 0], [4, 2, 0, 10]], [[4, 9, 0, 5], [3, 9, 0, 7], [1, 9, 3, 0]], [[6, 6, 0, 9], [4, 6, 3, 0], [1, 4, 0, 7]], [[8, 9, 6, 0], [8, 5, 3, 0], [8, 5, 0, 5]], [[5, 9, 7, 0], [4, 8, 3, 0], [4, 8, 0, 1]], [[9, 10, 4, 0], [9, 9, 0, 3], [9, 8, 5, 0]], [[9, 8, 7, 0], [7, 6, 3, 0], [6, 7, 2, 0]], [[9, 10, 0, 7], [7, 7, 0, 1], [5, 5, 2, 0]], [[8, 5, 10, 0], [7, 4, 0, 9], [7, 2, 10, 0]], [[7, 7, 10, 0], [4, 7, 0, 4], [4, 2, 6, 0]], [[6, 8, 3, 0], [4, 5, 0, 4], [4, 2, 0, 2]], [[7, 9, 0, 5], [5, 7, 0, 5], [1, 5, 0, 5]], [[6, 8, 2, 0], [7, 7, 3, 0], [3, 7, 2, 0]], [[10, 7, 4, 0], [8, 5, 3, 0], [6, 4, 3, 0]], [[6, 7, 5, 0], [6, 6, 0, 3], [5, 4, 4, 0]], [[6, 7, 0, 3], [5, 7, 0, 3], [4, 5, 7, 0]], [[4, 4, 6, 0], [5, 4, 0, 7], [1, 3, 9, 0]], [[4, 8, 0, 6], [4, 8, 5, 0], [4, 8, 4, 0]], [[6, 1, 0, 5], [6, 1, 7, 0], [3, 1, 6, 0]], [[5, 8, 7, 0], [4, 7, 0, 7], [3, 7, 0, 5]], [[10, 7, 0, 10], [8, 6, 4, 0], [6, 6, 0, 10]], [[10, 6, 0, 10], [8, 4, 0, 7], [8, 4, 5, 0]], [[5, 6, 6, 0], [4, 5, 0, 10], [3, 2, 0, 9]], [[7, 10, 0, 9], [7, 8, 0, 7], [6, 5, 7, 0]], [[5, 9, 6, 0], [5, 9, 0, 7], [5, 9, 0, 4]], [[8, 6, 0, 10], [7, 7, 0, 8], [5, 1, 7, 0]], [[5, 8, 0, 9], [7, 7, 8, 0], [1, 7, 0, 6]], [[10, 6, 6, 0], [8, 5, 0, 4], [9, 6, 3, 0]], [[4, 7, 0, 4], [2, 5, 5, 0], [2, 3, 4, 0]], [[0, 0, 0, 0]]]
letting resourceLimits = [15, 16, 128, 135]
letting candidateParents = [[], [1, 3, 4, 6, 9, 15], [1, 2, 4, 6, 7, 8, 9, 10, 11, 14, 16, 22, 25, 26], [1, 2, 3, 5, 7, 8, 10, 11, 12, 14, 15, 16, 17, 18, 19, 20, 22, 25, 27, 30], [2, 3, 4, 6, 7, 8, 9, 10, 11, 12, 13, 14, 15, 16, 17, 18, 19, 20, 21, 22, 23, 24, 25, 26, 27, 29, 30], [2, 3, 4, 5, 7, 8, 9, 10, 11, 12, 14, 15, 16, 17, 18, 19, 20, 22, 25, 26, 27, 28, 30], [2, 3, 4, 5, 6, 9, 15, 27], [3, 4, 5, 6, 7, 9, 10, 11, 12, 13, 15, 16, 19, 22, 27], [2, 3, 4, 5, 6, 7, 8, 10, 11, 12, 13, 14, 15, 16, 17, 18, 19, 20, 21, 22, 23, 24, 25, 27, 28, 29, 30], [3, 4, 5, 6, 7, 8, 9, 14, 15, 22, 27], [3, 4, 5, 6, 8, 9, 10, 14, 15, 16, 17, 20, 22, 25, 27, 28, 30], [3, 4, 5, 6, 8, 9, 11, 14, 15, 16, 17, 20, 22, 25, 26, 27, 28, 30], [5, 6, 8, 9, 12, 14, 15, 16, 17, 18, 19, 20, 22, 25, 26, 27, 28, 29, 30], [3, 4, 5, 6, 8, 9, 10, 11, 12, 13, 15, 16, 19, 20, 21, 22, 23, 27, 28], [2, 3, 4, 5, 6, 7, 8, 9, 10, 11, 12, 13, 14, 16, 19, 22, 25, 26], [3, 4, 5, 6, 8, 9, 10, 11, 12, 13, 14, 15, 19, 20, 21, 22, 23, 27, 28], [4, 5, 6, 9, 11, 12, 13, 14, 15, 16, 19, 20, 21, 22, 23, 24, 25, 26, 27, 28, 31], [4, 5, 6, 9, 12, 13, 17, 19, 20, 21, 22, 23, 24, 25, 26, 27, 28, 30, 31], [4, 5, 6, 8, 9, 12, 13, 14, 15, 16, 17, 18, 20, 21, 22, 25, 26, 27, 28, 29, 30], [4, 5, 6, 8, 9, 10, 11, 12, 13, 14, 15, 16, 17, 18, 19, 22, 25, 26, 27, 29, 30], [5, 9, 13, 14, 16, 17, 18, 19, 20, 22, 25, 26, 27, 28, 29, 30], [3, 4, 5, 6, 7, 8, 9, 10, 11, 12, 13, 14, 15, 16, 17, 18, 19, 20, 21, 25, 26, 27, 28, 29, 30], [5, 9, 14, 16, 17, 18, 19, 21, 22, 25, 26, 27, 28, 29, 30], [5, 9, 14, 16, 17, 18, 23, 25, 26, 27, 28, 29, 30], [3, 4, 5, 6, 9, 11, 12, 13, 14, 15, 16, 17, 18, 19, 20, 21, 22, 23, 24, 27, 28], [3, 5, 6, 9, 11, 12, 13, 15, 17, 18, 19, 20, 21, 22, 23, 24, 25, 27, 28, 29, 30], [2, 4, 5, 6, 7, 8, 9, 10, 11, 12, 13, 14, 15, 16, 17, 18, 19, 20, 21, 22, 23, 24, 25, 26, 28, 29, 31], [4, 5, 6, 9, 11, 12, 13, 14, 16, 17, 18, 19, 20, 21, 22, 23, 24, 25, 26, 27, 29, 30], [5, 6, 9, 13, 18, 19, 20, 21, 22, 23, 24, 25, 26, 27, 28, 30, 31], [4, 5, 6, 9, 11, 12, 13, 17, 18, 19, 20, 21, 22, 23, 24, 25, 26, 27, 28, 29, 31], [17, 18, 24, 26, 27, 28, 29, 30], [29, 30, 31]]
